<number of tasks>
20

<cycle time>
1000

<order strength>
0,5


<task times>
1 128
2 122
3 72
4 536
5 151
6 203
7 28
8 307
9 194
10 229
11 170
12 222
13 258
14 86
15 119
16 201
17 373
18 95
19 302
20 94

<precedence relations>
1,4
1,5
2,6
2,7
3,6
3,7
4,9
5,10
6,8
6,11
6,12
7,12
8,13
9,15
10,15
11,14
12,15
13,16
14,17
15,17
15,18
15,19
16,19
17,20

<end>
